StudentsNr = 10;
InstructorsNr = 86;
DaysNr = 1;
SlotsPerDay = 20;
AvailabilitySlotsLenght = 10;
RoomNr = 1;
ProgrammNr = 2;
DegreeNr = 2;
RolesNr = 3;
CoursesNr = 1;
InstructorsProgramm = [{1}, {2}, {2}, {1, 2}, {1, 2}, {2}, {2}, {1}, {2}, {1}, {1}, {1, 2}, {1}, {1, 2}, {2}, {2}, {1}, {1}, {1, 2}, {2}, {2}, {1}, {2}, {1}, {1}, {1, 2}, {1}, {1, 2}, {1}, {1, 2}, {1}, {2}, {1}, {1}, {1, 2}, {2}, {1, 2}, {2}, {1, 2}, {2}, {1, 2}, {2}, {1, 2}, {1}, {2}, {1, 2}, {1, 2}, {2}, {1, 2}, {2}, {1, 2}, {2}, {1}, {2}, {2}, {1}, {1, 2}, {1, 2}, {2}, {1, 2}, {1, 2}, {1}, {1}, {2}, {2}, {2}, {1, 2}, {2}, {1, 2}, {2}, {1}, {1, 2}, {2}, {1}, {1, 2}, {2}, {2}, {1, 2}, {2}, {2}, {2}, {1, 2}, {1}, {1}, {1, 2}, {2}];
InstructorRolesPerProgramm = [|{4, 8, 10, 13, 24, 26, 27, 33, 35, 41, 44, 46, 47, 49, 56, 57, 60, 61, 67, 69, 71, 75, 85}, {8, 12, 13, 14, 17, 18, 22, 24, 25, 26, 27, 28, 30, 37, 39, 58, 60, 63, 69, 71, 75, 82, 83, 85}, {14, 17, 18, 19, 22, 25, 26, 28, 30, 35, 37, 39, 41, 43, 47, 49, 51, 53, 56, 58, 62, 63, 67, 69, 74, 75, 85}|{3, 4, 6, 15, 16, 21, 26, 32, 35, 38, 41, 45, 46, 47, 49, 50, 52, 55, 57, 59, 60, 61, 65, 66, 67, 69, 73, 75, 76, 77, 81, 85, 86}, {3, 12, 14, 16, 21, 23, 26, 28, 30, 32, 37, 38, 39, 40, 42, 48, 54, 58, 60, 64, 65, 66, 69, 70, 75, 76, 79, 81, 82, 85}, {3, 14, 19, 26, 28, 30, 35, 37, 38, 39, 40, 41, 42, 43, 47, 49, 51, 52, 54, 55, 58, 65, 67, 69, 70, 75, 76, 80, 81, 85, 86}|];
InstructorsAvailability = [|1, 1, |1, 1, |1, 1, |1, 1, |1, 1, |1, 1, |1, 1, |0, 1, |0, 0, |1, 1, |1, 1, |0, 1, |1, 1, |0, 1, |0, 1, |1, 0, |0, 0, |0, 1, |0, 1, |1, 1, |1, 1, |0, 0, |0, 0, |0, 1, |0, 1, |1, 0, |1, 1, |0, 0, |0, 0, |1, 0, |1, 0, |1, 1, |0, 1, |0, 1, |1, 1, |0, 0, |1, 1, |0, 1, |1, 1, |1, 1, |0, 0, |0, 1, |1, 1, |0, 1, |0, 1, |1, 1, |0, 1, |0, 1, |0, 1, |0, 1, |0, 0, |1, 1, |0, 0, |0, 0, |1, 0, |0, 0, |1, 1, |1, 1, |0, 1, |1, 1, |1, 1, |1, 1, |0, 0, |1, 1, |0, 1, |0, 1, |0, 0, |0, 1, |1, 1, |1, 1, |1, 1, |1, 1, |1, 1, |0, 1, |1, 1, |0, 0, |1, 1, |0, 0, |0, 0, |0, 1, |1, 1, |1, 1, |0, 0, |1, 1, |1, 1, |0, 1|];
StudentsProgramm = [1, 1, 2, 2, 1, 2, 2, 1, 2, 2];
StudentsDegree = [1, 2, 2, 1, 2, 2, 2, 2, 1, 1];
StudentsSupervisorId = [69, 4, 68, 19, 58, 41, 37, 84, 46, 4];
StudentsCourseIds = [{1}, {}, {}, {1}, {}, {}, {}, {}, {1}, {1}];
StudentsAvailability = [|0, 0, |1, 1, |0, 0, |0, 0, |1, 1, |0, 0, |1, 1, |1, 1, |0, 0, |0, 0|];
TheoryticalMinCard = [0, 0, 1, 0, 0, 0, 0, 1, 0, 0];
CoursesInstructorIds = [{6, 7, 8, 9, 11, 12, 15, 16, 19, 20, 21, 22, 28, 30, 31, 33, 35, 38, 40, 41, 43, 45, 46, 47, 50, 51, 52, 53, 62, 63, 67, 68, 69, 72, 75, 82, 84, 86}];
RolesDemands = [1, 16, 13];
RolesContinuity = [1];
ExamLen = [2, 2, 2, 2, 2, 2, 2, 2, 2, 2];
LunchTsMinLen = 1;
LunchStarts = [5..13];
SupervisorAvailable = 0;
OptimalLunchLenght = [1, 2];
OptimalStartTs = [0, 0];
OptimalFinishTs = [1, 20];
MinimizeRooms = 200;
RolesSoftContinuity = [|1, 2, 3|3, 4, 2|];
SameDegreeInRoom = 10;
Mergeability = 2;
